
  12    4
  10   10   10   10

   0   0   0   0   0   4 2 3 4 6 
   8  10  10  10  10   3 11 10 5 
   2  10  10  10  10   2 10 7 
   1  10  10  10  10   2 10 7 
   8  10  10  10  10   1 7 
  10  10  10  10  10   1 7 
   9  10  10  10  10   2 9 8 
   3  10  10  10  10   1 12
   1  10  10  10  10   1 12
   4  10  10  10  10   1 12
   4  10  10  10  10   1 12
   0   0   0   0   0   0 
